branch-and-cut/resultados/I080/i080-023.sol
1174
6
3 75
5 75
6 75
1 75
4 75
2 75
